! Created with skrf 2.1.0 (http://scikit-rf.org).
# GHz S MA R 50.0 
!freq magS11 angS11
!
2.2 0.5183959528701692 -72.80260178196151
2.202 0.5147924863147723 -73.18034393811428
2.204 0.5111670629845585 -73.5614417217381
2.206 0.5075197659989105 -73.94595542036686
2.208 0.5038506860781775 -74.33394740423032
2.21 0.5001599217602167 -74.72548222351116
2.212 0.49644757962329306 -75.12062671076322
2.214 0.4927137745157034 -75.51945008879144
2.216 0.48895862979249544 -75.92202408431616
2.218 0.4851822775597077 -76.32842304776207
2.22 0.4813848589265819 -76.7387240795351
2.222 0.47756652426622465 -77.15300716317537
2.224 0.47372743348526974 -77.57135530579592
2.226 0.4698677563030859 -77.99385468624887
2.228 0.4659876725411809 -78.42059481148283
2.23 0.4620873724234509 -78.85166868159222
2.232 0.4581670568880214 -79.2871729640867
2.234 0.45422693791145796 -79.72720817794702
2.236 0.4502672388462113 -80.17187888806859
2.238 0.44628819477222464 -80.62129391073442
2.24 0.44229005286369943 -81.07556653080194
2.242 0.4382730727721224 -81.53481473133118
2.244 0.4342375270267301 -81.99916143643132
2.246 0.43018370145369084 -82.46873476815267
2.248 0.4261118956153911 -82.94366831830563
2.25 0.42202242327133976 -83.42410143614441
2.252 0.4179156128623145 -83.91017953291554
2.254 0.41379180801952026 -84.40205440433516
2.256 0.4096513681006862 -84.89988457212563
2.258 0.405494668755171 -85.40383564581653
2.26 0.4013221025203438 -85.91408070608804
2.262 0.3971340794516771 -86.43080071101586
2.264 0.3929310277892169 -86.95418492665812
2.266 0.3887133946632972 -87.48443138351301
2.268 0.3844816468426254 -88.02174736046473
2.27 0.3802362715281229 -88.566349897927
2.272 0.3759777771961924 -89.11846634199078
2.274 0.37170669449539073 -89.67833492147714
2.276 0.3674235772008195 -90.24620535989634
2.278 0.363129003230919 -90.82233952440832
2.28 0.3588235757317297 -91.40701211397771
2.282 0.35450792423411387 -92.00051138900692
2.284 0.3501827058899005 -92.60313994481365
2.286 0.3458486067933788 -93.21521553140005
2.288 0.34150634339513253 -93.83707192201729
2.29 0.33715666401575 -94.46905983307883
2.292 0.33280035046756523 -95.111547897996
2.294 0.32843821979324156 -95.7649236975
2.296 0.32407112613069405 -96.42959484897025
2.298 0.31969996271460366 -97.10599015719008
2.3 0.31532566402553575 -97.79456082879788
2.302 0.3109492080985154 -98.49578175246788
2.304 0.30657161900376373 -99.21015284652964
2.306 0.3021939695131869 -99.93820047529756
2.308 0.29781738396713714 -100.68047893479945
2.31 0.2934430413568737 -101.43757200784765
2.312 0.2890721786391028 -102.21009458743669
2.314 0.28470609429985766 -102.99869436625268
2.316 0.28034615218584963 -103.80405358857575
2.318 0.27599378562219473 -104.62689085899947
2.32 0.2716505018360649 -105.4679630001089
2.322 0.26731788670629897 -106.32806694846758
2.324 0.26299760985920884 -107.20804167488242
2.326 0.25869143013072626 -108.10877011082121
2.328 0.25440120141447525 -109.03118105794657
2.33 0.2501288789142346 -109.97625105185521
2.332 0.24587652581739933 -110.94500614412651
2.334 0.24164632040328143 -111.9385235585181
2.336 0.23744056359614873 -112.9579331674273
2.338 0.2332616869675357 -114.00441872336987
2.34 0.22911226118521982 -115.07921876703102
2.342 0.22499500489698046 -116.18362711822999
2.344 0.22091279402535716 -117.31899283876376
2.346 0.2168686714346314 -118.48671953644124
2.348 0.2128658569125753 -119.68826385765763
2.35 0.20890775738650338 -120.92513299167894
2.352 0.20499797726517835 -122.19888098366474
2.354 0.20114032876444016 -123.51110362584672
2.356 0.19733884203440985 -124.86343166802187
2.358 0.19359777485913085 -126.25752206085582
2.36 0.18992162164517634 -127.6950469201892
2.362 0.1863151213538708 -129.1776798800553
2.364 0.1827832639626712 -130.70707948966222
2.366 0.17933129496580577 -132.28486930930535
2.368 0.17596471734424346 -133.91261437714354
2.37 0.17268929035335387 -135.5917937590359
2.372 0.16951102439746588 -137.3237689640711
2.374 0.16643617118995363 -139.10974811635347
2.376 0.16347120834332687 -140.95074592628706
2.378 0.16062281750595164 -142.84753970824
2.38 0.15789785517229515 -144.80062194996682
2.382 0.15530331535515432 -146.81015025248803
2.384 0.15284628343511517 -148.87589582123044
2.386 0.15053388070740892 -150.9971920862366
2.388 0.1483731994396895 -153.17288543739863
2.39 0.1463712286409457 -155.40129044547933
2.392 0.1445347712184877 -157.68015225633403
2.394 0.1428703537526417 -160.00661904132514
2.396 0.14138413072006512 -162.37722740581253
2.398 0.14008178560551446 -164.78790344863668
2.4 0.13896843190472608 -167.23398169234864
2.402 0.13804851747581334 -169.7102433550139
2.404 0.1373257359793815 -172.21097443245722
2.406 0.13680294920194397 -174.73004286666867
2.408 0.136482123844019 -177.26099279132683
2.41 0.13636428586067564 -179.79715259712276
2.412 0.13644949468777653 177.66824751254455
2.414 0.13673683872447553 175.14195357103034
2.416 0.13722445235284775 172.63056696127137
2.418 0.13790955365808386 170.14042996199197
2.42 0.13878850097084666 167.6775225698418
2.422 0.13985686547981988 165.2473745417318
2.424 0.14110951652652154 162.85499544489414
2.426 0.14254071583398412 160.50482422343717
2.428 0.14414421684016435 158.2006985269135
2.43 0.14591336547986947 155.94584291739352
2.432 0.14784119913685057 153.7428741623339
2.434 0.14992054100890087 151.59382117766242
2.436 0.15214408772869845 149.5001568175156
2.438 0.15450448870230887 147.4628385916223
2.44 0.15699441621703536 145.48235548509626
2.442 0.15960662589566124 143.55877830442034
2.444 0.16233400751387056 141.69181132232652
2.446 0.1651696265429476 139.88084339291345
2.448 0.16810675703181366 138.1249971156541
2.45 0.1711389066089514 136.42317501269977
2.452 0.17425983447793597 134.77410202827932
2.454 0.17746356331395552 133.17636395145232
2.456 0.18074438595692088 131.6284416004833
2.458 0.1840968677523481 130.1287407904079
2.46 0.18751584532531007 128.6756182399045
2.462 0.1909964224944516 127.2674036661347
2.464 0.19453396394945827 125.90241837411307
2.466 0.1981240872316491 124.57899067764386
2.468 0.20176265347710143 123.29546849849712
2.47 0.20544575730737283 122.05022948493551
2.472 0.20916971618559932 120.8416889747152
2.474 0.2129310594962416 119.66830610499052
2.476 0.21672651755493713 118.52858834509296
2.478 0.22055301071055708 117.42109470007527
2.48 0.22440763866405097 116.34443780478583
2.482 0.22828767009733533 115.29728510112132
2.484 0.23219053267967546 114.27835926567298
2.486 0.23611380349793712 113.28643803164502
2.488 0.24005519994012614 112.32035352785
2.49 0.24401257104813198 111.37899123882434
2.492 0.24798388934501442 110.46128867358073
2.494 0.25196724313400254 109.56623381610268
2.496 0.2559608292601773 108.6928634182222
2.498 0.2599629463212677 107.84026118481052
2.5 0.2639719883107188 107.00755589207944
2.502 0.26798643867399236 106.19391947204033
2.504 0.272004864757677 105.3985650896321
2.506 0.2760259126302583 104.62074523354372
2.508 0.2800483022531851 103.85974983717621
2.51 0.2840708229810012 103.11490444238939
2.512 0.28809232936978024 102.38556841553054
2.514 0.29211173727373807 101.67113322266344
2.516 0.29612802021070306 100.97102076880326
2.518 0.3001402059780019 100.2846818042546
2.52 0.3041473735012907 99.61159439976609
2.522 0.3081486498998347 98.9512624911157
2.524 0.31214320775271137 98.30321449287187
2.526 0.3161302625514097 97.6670019803925
2.528 0.3201090703252385 97.04219843860461
2.53 0.3240789254268731 96.42839807571401
2.532 0.32803915846625176 95.82521469970862
2.534 0.3319891343818717 95.23228065531755
2.536 0.33592825063933557 94.64924581895578
2.538 0.3398559355477091 94.07577664911425
2.54 0.3437716466849996 93.5115552896173
2.542 0.3476748694246794 92.9562787231792
2.544 0.3515651155558021 92.40965797272094
2.546 0.3554419219898333 91.87141734796093
2.548 0.35930484954782677 91.34129373486267
2.55 0.3631534818220903 90.8190359256003
2.552 0.36698742410690327 90.30440398679431
2.554 0.3708063023933048 89.79716866385856
2.556 0.37460976242332533 89.29711081939975
2.558 0.37839746879940905 88.80402090370605
2.56 0.38216910414510363 88.31769845545881
2.562 0.3859243683133792 87.83795163090036
2.564 0.3896629776392505 87.36459675978028
2.566 0.3933846642335978 86.8974579264999
2.568 0.39708917531534327 86.43636657495944
2.57 0.4007762725793528 85.98116113569867
2.572 0.40444573159762903 85.531686674004
2.574 0.40809734125155456 85.08779455773254
2.576 0.4117309031931049 84.64934214367747
2.578 0.4153462313331251 84.21619248137019
2.58 0.4189431513548817 83.788214033281
2.582 0.4225215002512614 83.36528041044343
2.584 0.42608112588410074 82.94727012258572
2.586 0.42962188656422995 82.53406634191164
2.588 0.43314365065094995 82.12555667972197
2.59 0.43664629616971734 81.72163297512196
2.592 0.4401297104469426 81.3221910951024
2.594 0.44359378976085045 80.9271307453295
2.596 0.4470384390074498 80.53635529101808
2.598 0.450463571380727 80.14977158730065
2.6 0.4538691080662269 79.76728981854342
2.602 0.45725497794726255 79.38882334609148
2.604 0.46062111732303734 79.01428856395954
2.606 0.4639674696380138 78.64360476201273
2.608 0.4672939852219203 78.27669399621048
2.61 0.47060062103981176 77.91348096551329
2.612 0.4738873404516596 77.55389289507498
2.614 0.47715411298096355 77.19785942536805
2.616 0.4804009140919317 76.84531250690883
2.618 0.48362772497478673 76.49618630027155
2.62 0.4868345323387981 76.15041708109729
2.622 0.490021328212666 75.80794314982248
2.624 0.49318810975189875 75.46870474586771
2.626 0.4963348790528527 75.13264396604384
2.628 0.49946164297313744 74.79970468694437
2.63 0.5025684129580794 74.46983249111074
2.632 0.505655204872992 74.14297459676503
2.634 0.5087220388409807 73.81907979092118
2.636 0.511768939086057 73.49809836569294
2.638 0.5147959337813365 73.17998205762974
2.64 0.5178030549020938 72.86468398992153
2.642 0.5207903380835047 72.55215861731979
2.644 0.5237578224828634 72.24236167363541
2.646 0.5267055506461114 71.9352501216775
2.648 0.5296335683785098 71.63078210550819
2.65 0.5325419246193007 71.32891690489312
2.652 0.5354306713202028 71.02961489183637
2.654 0.5382998633276086 70.73283748909296
2.656 0.5411495582683461 70.4385471305586
2.658 0.543979816438883 70.14670722344258
2.66 0.5467907006978511 69.85728211213336
2.662 0.5495822763617785 69.57023704367374
2.664 0.5523546111039237 69.28553813476393
2.666 0.5551077748561132 69.00315234021795
2.668 0.5578418397134675 68.72304742280257
2.67 0.5605568798419515 68.44519192438885
2.672 0.5632529713886351 68.16955513835467
2.674 0.5659301923945933 67.89610708317596
2.676 0.5685886227103611 67.62481847715016
2.678 0.5712283439138681 67.35566071419687
2.68 0.5738494392307724 67.08860584068475
2.682 0.5764519934571353 66.82362653323537
2.684 0.579036092884353 66.56069607745808
2.686 0.5816018252262958 66.2997883475716
2.688 0.5841492795485799 66.04087778687123
2.69 0.5866785461999173 65.78393938900173
2.692 0.5891897167454875 65.5289486799985
2.694 0.5916828839022714 65.2758817010616
2.696 0.5941581414762891 65.02471499202917
2.698 0.5966155843017037 64.77542557551718
2.7 0.5990553081817257 64.52799094169629
