! Created with skrf 2.1.0 (http://scikit-rf.org).
# GHz S RI R 50.0 
!freq ReS11 ImS11 ReS21 ImS21 ReS12 ImS12 ReS22 ImS22
0.5 -0.3300626706616786 -0.20623825441695753 0.4882800426436921 -0.7581402254048342 0.48828004264369207 -0.7581402254048342 -0.3300626706616783 -0.2062382544169575
0.51 -0.337355372539239 -0.2025850763497005 0.47343574391215126 -0.7649403915887458 0.47343574391215115 -0.7649403915887458 -0.33735537253923903 -0.20258507634970055
0.52 -0.34447819452221373 -0.1986914735210146 0.4585811511784504 -0.7714545184806612 0.45858115117845033 -0.7714545184806609 -0.3444781945222135 -0.19869147352101457
0.53 -0.3514246261462289 -0.1945654597252402 0.4437207859165082 -0.7776883998311359 0.4437207859165082 -0.7776883998311359 -0.35142462614622866 -0.19456545972524003
0.54 -0.35818852738141616 -0.19021510469404354 0.4288587739915637 -0.7836477871510031 0.42885877399156375 -0.7836477871510031 -0.3581885273814161 -0.19021510469404365
0.55 -0.36476411713216966 -0.1856485191373118 0.41399885886019894 -0.789338371333824 0.41399885886019894 -0.789338371333824 -0.3647641171321698 -0.1856485191373117
0.56 -0.37114596145106604 -0.1808738411098423 0.39914441519732946 -0.7947657655225475 0.3991444151973293 -0.7947657655225471 -0.37114596145106593 -0.18087384110984228
0.57 -0.37732896156281376 -0.17589922366464353 0.38429846286314484 -0.7999354891819004 0.3842984628631448 -0.7999354891819004 -0.3773289615628136 -0.17589922366464347
0.58 -0.3833083417868787 -0.17073282374952312 0.36946368113060346 -0.8048529533342658 0.3694636811306034 -0.8048529533342657 -0.3833083417868788 -0.17073282374952323
0.59 -0.38907963744037477 -0.16538279230028755 0.3546424231015511 -0.8095234469138239 0.35464242310155114 -0.809523446913824 -0.38907963744037466 -0.1653827923002875
0.6 -0.3946386827959576 -0.15985726548119972 0.3398367302468089 -0.8139521241915034 0.3398367302468088 -0.8139521241915035 -0.3946386827959577 -0.1598572654811997
0.61 -0.3999815991628809 -0.15416435702130776 0.3250483470125729 -0.818143993221699 0.32504834701257296 -0.8181439932216988 -0.399981599162881 -0.15416435702130776
0.62 -0.4051047831530583 -0.14831215159377958 0.3102787354422172 -0.8221039052607706 0.3102787354422172 -0.8221039052607706 -0.4051047831530585 -0.1483121515937796
0.63 -0.41000489518799665 -0.14230869918440464 0.2955290897689971 -0.8258365451069084 0.29552908976899706 -0.8258365451069085 -0.41000489518799665 -0.14230869918440467
0.64 -0.41467884829678936 -0.1361620103948932 0.28080035094126066 -0.8293464223110373 0.2808003509412606 -0.8293464223110373 -0.4146788482967896 -0.13616201039489323
0.65 -0.41912379725006216 -0.12988005262645333 0.26609322104750394 -0.8326378632089337 0.26609322104750394 -0.8326378632089337 -0.41912379725006205 -0.12988005262645325
0.66 -0.42333712806976814 -0.12347074708930615 0.25140817761402273 -0.8357150037256418 0.25140817761402284 -0.8357150037256422 -0.42333712806976803 -0.12347074708930611
0.67 -0.42731644795012264 -0.11694196658425403 0.23674548775293966 -0.8385817829044946 0.23674548775293963 -0.8385817829044948 -0.4273164479501224 -0.11694196658425393
0.68 -0.4310595756206864 -0.1103015340031054 0.2221052221430803 -0.8412419371145826 0.22210522214308032 -0.841241937114583 -0.4310595756206862 -0.11030153400310536
0.69 -0.4345645321786533 -0.10355722149562867 0.20748726883050303 -0.8436989948922905 0.20748726883050306 -0.8436989948922906 -0.4345645321786533 -0.10355722149562865
0.7 -0.437829532413801 -0.09671675025172487 0.19289134683947515 -0.8459562723745055 0.19289134683947515 -0.8459562723745055 -0.4378295324138013 -0.09671675025172492
0.71 -0.4408529766462458 -0.08978779084862835 0.1783170195883349 -0.8480168692832893 0.17831701958833487 -0.8480168692832892 -0.4408529766462455 -0.08978779084862833
0.72 -0.44363344309414826 -0.08277796411414612 0.16376370810800725 -0.8498836654241153 0.16376370810800728 -0.8498836654241153 -0.44363344309414826 -0.08277796411414609
0.73 -0.4461696807858073 -0.07569484245818164 0.14923070406393357 -0.8515593176622271 0.1492307040639335 -0.851559317662227 -0.44616968078580743 -0.07569484245818162
0.74 -0.4484606030280896 -0.06854595162604676 0.1347171825848886 -0.8530462573442273 0.1347171825848886 -0.8530462573442275 -0.44846060302808977 -0.06854595162604678
0.75 -0.45050528144097735 -0.06133877282831206 0.12022221490453898 -0.8543466881346097 0.120222214904539 -0.8543466881346095 -0.45050528144097723 -0.06133877282831202
0.76 -0.4523029405659861 -0.054080745203167246 0.105744780823746 -0.8554625842396582 0.10574478082374597 -0.8554625842396584 -0.452302940565986 -0.05408074520316723
0.77 -0.4538529530544502 -0.046779268568431204 0.09128378100344228 -0.8563956889938492 0.09128378100344231 -0.8563956889938494 -0.4538529530544504 -0.04677926856843125
0.78 -0.4551548354400625 -0.039441706421460304 0.07683804909951679 -0.8571475137866595 0.07683804909951679 -0.8571475137866594 -0.4551548354400624 -0.039441706421460256
0.79 -0.45620824449861413 -0.03207538914623657 0.06240636375248657 -0.8577193373104588 0.06240636375248657 -0.8577193373104588 -0.45620824449861425 -0.032075389146236574
0.8 -0.4570129741965889 -0.024687617387857262 0.04798746044583305 -0.8581122051129564 0.04798746044583304 -0.858112205112956 -0.4570129741965888 -0.02468761738785723
0.81 -0.457568953229089 -0.017285665555495697 0.03358004324776522 -0.8583269294404569 0.03358004324776522 -0.8583269294404569 -0.4575689532290893 -0.017285665555495697
0.82 -0.4578762431464828 -0.009876785415647332 0.019182796451827966 -0.8583640893609621 0.019182796451827962 -0.8583640893609619 -0.45787624314648245 -0.009876785415647321
0.83 -0.45793503706816785 -0.0024682097381009964 0.004794396132206864 -0.8582240311589238 0.004794396132206865 -0.858224031158924 -0.4579350370681679 -0.002468209738100997
0.84 -0.4577456589809058 0.004932844042390739 -0.0095864783701627 -0.8579068689962065 -0.009586478370162705 -0.8579068689962067 -0.4577456589809062 0.004932844042390744
0.85 -0.45730856361825406 0.012319170185374834 -0.023961133014566018 -0.8574124858365356 -0.023961133014566025 -0.8574124858365357 -0.45730856361825445 0.012319170185374843
0.86 -0.45662433691675564 0.019683571061221344 -0.03833084766458817 -0.856740534633417 -0.03833084766458818 -0.856740534633417 -0.4566243369167558 0.019683571061221348
0.87 -0.45569369704363 0.027018853661060428 -0.05269686471370944 -0.855890439784175 -0.05269686471370943 -0.8558904397841749 -0.45569369704362983 0.027018853661060407
0.88 -0.45451749598980085 0.03431782623620575 -0.06706037771737271 -0.8548613988553876 -0.06706037771737272 -0.8548613988553876 -0.4545174959898009 0.03431782623620575
0.89 -0.4530967217211335 0.04157329510317083 -0.0814225200172384 -0.8536523845875864 -0.08142252001723839 -0.8536523845875863 -0.4530967217211334 0.04157329510317079
0.9 -0.45143250087972797 0.04877806165050955 -0.09578435334429304 -0.8522621471896334 -0.09578435334429303 -0.8522621471896333 -0.45143250087972814 0.04877806165050957
0.91 -0.4495261020260209 0.055924919583925814 -0.11014685638861924 -0.8506892169356817 -0.11014685638861926 -0.8506892169356818 -0.4495261020260209 0.05592491958392582
0.92 -0.44737893941123996 0.06300665244639364 -0.12451091332499459 -0.8489319070800494 -0.1245109133249946 -0.8489319070800494 -0.4473789394112401 0.06300665244639367
0.93 -0.44499257726846025 0.07001603145038654 -0.13887730228502704 -0.8469883171077146 -0.138877302285027 -0.8469883171077143 -0.4449925772684605 0.0700160314503866
0.94 -0.4423687346090414 0.07694581365973198 -0.15324668376830736 -0.8448563363404237 -0.15324668376830736 -0.8448563363404236 -0.4423687346090414 0.07694581365973199
0.95 -0.4395092905096611 0.08378874055906052 -0.16761958898702697 -0.8425336479206083 -0.16761958898702695 -0.8425336479206084 -0.4395092905096614 0.08378874055906065
0.96 -0.4364162898733906 0.09053753704929295 -0.18199640814069784 -0.8400177331974149 -0.18199640814069787 -0.8400177331974149 -0.4364162898733907 0.09053753704929299
0.97 -0.433091949646333 0.09718491090808926 -0.1963773786200332 -0.8373058765411494 -0.1963773786200333 -0.83730587654115 -0.4330919496463333 0.09718491090808933
0.98 -0.4295386654692267 0.10372355275464173 -0.2107625731416753 -0.834395170614304 -0.21076257314167526 -0.8343951706143039 -0.4295386654692265 0.10372355275464173
0.99 -0.4257590187410967 0.11014613655862117 -0.22515188781834264 -0.8312825221290491 -0.22515188781834267 -0.831282522129049 -0.4257590187410967 0.11014613655862118
1.0 -0.4217557840695056 0.11644532073343045 -0.23954503017205628 -0.8279646581226506 -0.23954503017205628 -0.8279646581226507 -0.4217557840695055 0.11644532073343035
1.01 -0.4175319370791987 0.12261374985418916 -0.25394150710146035 -0.8244381327836272 -0.25394150710146035 -0.824438132783627 -0.4175319370791989 0.12261374985418928
1.02 -0.4130906625479676 0.12864405704101245 -0.2683406128178271 -0.820699334862629 -0.26834061281782695 -0.8206993348626289 -0.4130906625479675 0.12864405704101234
1.03 -0.40843536283534126 0.1345288670481275 -0.28274141676814935 -0.8167444957029566 -0.28274141676814923 -0.8167444957029564 -0.40843536283534104 0.13452886704812744
1.04 -0.40356966656628007 0.1402608000991823 -0.2971427515677811 -0.8125696979262808 -0.2971427515677811 -0.8125696979262809 -0.40356966656628035 0.1402608000991824
1.05 -0.39849743752836947 0.14583247650866552 -0.3115432009693616 -0.8081708848095062 -0.31154320096936167 -0.8081708848095064 -0.3984974375283694 0.14583247650866546
1.06 -0.39322278373712083 0.1512365221286834 -0.32594108789926085 -0.8035438703887471 -0.32594108789926085 -0.8035438703887471 -0.3932227837371209 0.15123652212868346
1.07 -0.3877500666198759 0.15646557465935804 -0.3403344625974981 -0.7986843503260628 -0.3403344625974981 -0.7986843503260628 -0.38775006661987604 0.15646557465935806
1.08 -0.3820839102644896 0.16151229085978022 -0.3547210909019798 -0.7935879135738794 -0.3547210909019798 -0.7935879135738796 -0.38208391026448985 0.16151229085978028
1.09 -0.37622921067448195 0.16636935469476533 -0.36909844272299075 -0.7882500548708482 -0.36909844272299064 -0.7882500548708475 -0.37622921067448223 0.16636935469476538
1.1 -0.3701911449676745 0.17102948645051647 -0.38346368075908716 -0.7826661881012711 -0.3834636807590871 -0.7826661881012712 -0.3701911449676748 0.17102948645051652
1.11 -0.3639751804505457 0.17548545284972042 -0.39781364951089454 -0.7768316605480622 -0.39781364951089454 -0.7768316605480623 -0.36397518045054555 0.17548545284972034
1.12 -0.3575870834956479 0.17973007819349152 -0.4121448646547265 -0.7707417680665045 -0.4121448646547266 -0.7707417680665049 -0.35758708349564805 0.17973007819349163
1.13 -0.35103292814449005 0.1837562565539318 -0.426453502843416 -0.7643917712027792 -0.4264535028434161 -0.7643917712027797 -0.3510329281444902 0.18375625655393193
1.14 -0.3443191043533222 0.1875569650368245 -0.44073539200720646 -0.7577769122772979 -0.44073539200720646 -0.7577769122772979 -0.34431910435332225 0.18755696503682462
1.15 -0.33745232579437673 0.1911252781291115 -0.45498600223293006 -0.7508924334482946 -0.4549860022329299 -0.7508924334482944 -0.3374523257943768 0.19112527812911131
1.16 -0.3304396371203169 0.1944543831402633 -0.4692004373049789 -0.7437335957658386 -0.469200437304979 -0.7437335957658386 -0.3304396371203169 0.19445438314026336
1.17 -0.32328842059503154 0.19753759674042357 -0.48337342699662156 -0.7362956992204251 -0.48337342699662156 -0.7362956992204248 -0.3232884205950315 0.1975375967404236
1.18 -0.3160064019895755 0.2003683825912589 -0.4974993202050167 -0.7285741037835403 -0.49749932020501675 -0.7285741037835404 -0.3160064019895753 0.2003683825912588
1.19 -0.3086016556380363 0.20294037005776683 -0.5115720790276961 -0.7205642514300993 -0.5115720790276959 -0.7205642514300993 -0.3086016556380363 0.2029403700577667
1.2 -0.30108260854455493 0.2052473739808641 -0.525585273882248 -0.7122616891243571 -0.5255852738822481 -0.7122616891243571 -0.3010826085445548 0.20524737398086418
1.21 -0.2934580434296803 0.20728341548140988 -0.5395320797743665 -0.7036620927418622 -0.5395320797743662 -0.703662092741862 -0.2934580434296803 0.20728341548140983
1.22 -0.28573710060186774 0.20904274375640772 -0.5534052738221671 -0.6947612918902225 -0.553405273822167 -0.6947612918902224 -0.28573710060186774 0.20904274375640758
1.23 -0.2779292785382721 0.21051985881753038 -0.5671972341466861 -0.6855552955809295 -0.5671972341466858 -0.6855552955809293 -0.27792927853827215 0.21051985881753024
1.24 -0.2700444330582354 0.21170953511080912 -0.5808999402395488 -0.6760403186932733 -0.5808999402395487 -0.6760403186932733 -0.27004443305823517 0.2117095351108089
1.25 -0.2620927749730641 0.2126068459444367 -0.5945049749189468 -0.6662128091595512 -0.5945049749189467 -0.6662128091595511 -0.2620927749730642 0.21260684594443682
1.26 -0.25408486609700953 0.2132071886391733 -0.6080035279840206 -0.6560694757883424 -0.6080035279840206 -0.6560694757883424 -0.25408486609700953 0.21320718863917348
1.27 -0.24603161350688135 0.21350631030291234 -0.6213864016755338 -0.6456073166297579 -0.6213864016755339 -0.6456073166297579 -0.24603161350688116 0.21350631030291256
1.28 -0.23794426194158746 0.21350033411770017 -0.6346440180471407 -0.6348236477733081 -0.6346440180471405 -0.6348236477733079 -0.23794426194158752 0.21350033411770036
1.29 -0.2298343842381704 0.213185786013963 -0.6477664283465187 -0.6237161324555276 -0.6477664283465185 -0.6237161324555277 -0.2298343842381705 0.21318578601396268
1.3 -0.22171386970772305 0.2125596215930851 -0.6607433244990891 -0.6122828103409028 -0.6607433244990891 -0.6122828103409031 -0.22171386970772303 0.2125596215930851
1.31 -0.21359491036301229 0.21161925314594662 -0.6735640527788359 -0.6005221268260805 -0.6735640527788359 -0.6005221268260806 -0.21359491036301254 0.21161925314594676
1.32 -0.20548998491974393 0.21036257660170243 -0.6862176297408455 -0.5884329622040609 -0.6862176297408455 -0.5884329622040608 -0.2054899849197439 0.2103625766017025
1.33 -0.19741184050525554 0.2087879982282473 -0.6986927604785581 -0.5760146605121866 -0.6986927604785581 -0.5760146605121866 -0.19741184050525545 0.20878799822824728
1.34 -0.1893734720220671 0.20689446089361585 -0.7109778592552801 -0.5632670578755461 -0.7109778592552801 -0.5632670578755461 -0.18937347202206717 0.20689446089361577
1.35 -0.18138809912907833 0.204681469686246 -0.7230610725443323 -0.5501905101460813 -0.7230610725443322 -0.5501905101460814 -0.1813880991290785 0.20468146968624604
1.36 -0.17346914082037704 0.2021491166818738 -0.734930304495216 -0.5367859196274946 -0.7349303044952161 -0.536785919627494 -0.17346914082037695 0.20214911668187385
1.37 -0.1656301876004305 0.19929810463601208 -0.7465732448245501 -0.5230547606672173 -0.7465732448245501 -0.5230547606672175 -0.16563018760043058 0.19929810463601225
1.38 -0.15788497127488402 0.19612976937381188 -0.7579773991102365 -0.5089991038895155 -0.7579773991102361 -0.5089991038895154 -0.15788497127488413 0.19612976937381185
1.39 -0.15024733239808888 0.19264610064379717 -0.7691301214455645 -0.4946216388384799 -0.7691301214455644 -0.49462163883848015 -0.15024733239808896 0.1926461006437972
1.4 -0.14273118544171565 0.18884976119882055 -0.7800186493868775 -0.4799256947964695 -0.7800186493868774 -0.4799256947964693 -0.14273118544171573 0.18884976119882038
1.41 -0.13535048177313944 0.18474410386677514 -0.7906301411042458 -0.4649152595427247 -0.7906301411042457 -0.4649152595427248 -0.13535048177313938 0.18474410386677498
1.42 -0.12811917055748404 0.18033318637538248 -0.8009517146194892 -0.4495949958186446 -0.8009517146194892 -0.4495949958186446 -0.128119170557484 0.18033318637538243
1.43 -0.12105115772300096 0.17562178369993814 -0.8109704889902589 -0.433970255270708 -0.8109704889902589 -0.43397025527070776 -0.12105115772300108 0.17562178369993806
1.44 -0.11416026315552905 0.17061539771037415 -0.8206736272729188 -0.4180470896495026 -0.8206736272729189 -0.41804708964950266 -0.1141602631555291 0.170615397710374
1.45 -0.10746017631376177 0.1653202639045685 -0.8300483810710916 -0.4018322590538478 -0.8300483810710916 -0.4018322590538478 -0.10746017631376162 0.16532026390456864
1.46 -0.10096441048258123 0.15974335502852946 -0.8390821364513145 -0.3853332370226421 -0.8390821364513145 -0.3853332370226422 -0.10096441048258123 0.15974335502852952
1.47 -0.09468625590641119 0.15389238140097816 -0.8477624609826636 -0.3685582122939594 -0.8477624609826634 -0.36855821229395935 -0.09468625590641122 0.15389238140097783
1.48 -0.08863873206792455 0.1477757877799064 -0.8560771516338922 -0.35151608707090404 -0.8560771516338918 -0.3515160870709039 -0.08863873206792465 0.1477757877799064
1.49 -0.08283453939917668 0.14140274663184468 -0.8640142832400018 -0.33421647165690516 -0.8640142832400017 -0.33421647165690527 -0.08283453939917661 0.14140274663184488
1.5 -0.07728601073178373 0.1347831476906759 -0.8715622572306977 -0.31666967534913143 -0.8715622572306977 -0.3166696753491317 -0.07728601073178402 0.13478314769067612
1.51 -0.07200506280981481 0.12792758372168855 -0.8787098502962034 -0.29888669350761093 -0.8787098502962032 -0.29888669350761093 -0.07200506280981485 0.1279275837216886
1.52 -0.06700314820311809 0.12084733243793606 -0.8854462626519325 -0.28087919074891116 -0.8854462626519325 -0.28087919074891105 -0.06700314820311828 0.12084733243793577
1.53 -0.06229120796956647 0.11355433454947003 -0.8917611655528486 -0.26265948024676034 -0.8917611655528485 -0.2626594802467604 -0.06229120796956653 0.11355433454946996
1.54 -0.05787962542175407 0.10606116796133903 -0.8976447477013191 -0.24424049915724666 -0.8976447477013192 -0.24424049915724674 -0.057879625421753865 0.10606116796133923
1.55 -0.05377818135681863 0.09838101817289581 -0.9030877601892413 -0.22563578022288033 -0.9030877601892413 -0.22563578022288028 -0.05377818135681856 0.09838101817289574
1.56 -0.0499960111069737 0.09052764496845077 -0.9080815596163401 -0.20685941964727161 -0.9080815596163401 -0.20685941964727167 -0.049996011106973735 0.09052764496845081
1.57 -0.046541563762909924 0.08251534552718892 -0.9126181490320338 -0.18792604136999627 -0.9126181490320335 -0.1879260413699963 -0.04654156376291039 0.08251534552718864
1.58 -0.0434225639123427 0.07435891411784087 -0.9166902163582095 -0.16885075790881304 -0.9166902163582098 -0.16885075790881304 -0.0434225639123427 0.07435891411784086
1.59 -0.04064597622161774 0.06607359858043563 -0.9202911699646498 -0.14964912797320168 -0.9202911699646494 -0.14964912797320137 -0.04064597622161787 0.06607359858043522
1.6 -0.03821797316955352 0.05767505383286747 -0.9234151710876701 -0.1303371110885521 -0.9234151710876699 -0.13033711108855164 -0.038217973169553714 0.05767505383286726
1.61 -0.0361439062196602 0.049179292673478814 -0.9260571628055935 -0.11093101950378204 -0.9260571628055939 -0.11093101950378184 -0.036143906219659766 0.04917929267347905
1.62 -0.03442828068986714 0.04060263418173236 -0.9282128953117518 -0.09144746768607934 -0.9282128953117519 -0.09144746768607952 -0.034428280689867294 0.04060263418173228
1.63 -0.0330747345481507 0.0319616500469358 -0.9298789472565071 -0.07190331973423263 -0.9298789472565069 -0.07190331973423213 -0.033074734548151005 0.03196165004693542
1.64 -0.03208602132839196 0.023273109179251447 -0.9310527429638721 -0.052315635066332015 -0.931052742963872 -0.05231563506633199 -0.03208602132839203 0.023273109179251468
1.65 -0.031463997323915076 0.014553920977512312 -0.9317325653652526 -0.032701612757928364 -0.9317325653652536 -0.032701612757928135 -0.031463997323914285 0.014553920977512156
1.66 -0.031209613176928483 0.0058210776443695395 -0.9319175645321263 -0.013078534922614328 -0.9319175645321265 -0.013078534922614418 -0.03120961317692812 0.0058210776443696184
1.67 -0.031322909941086295 -0.0029084040494563317 -0.931607761730464 0.006536290461632899 -0.9316077617304632 0.006536290461632708 -0.03132290994108707 -0.00290840404945616
1.68 -0.03180301965228944 -0.011617541143516642 -0.9308040489619152 0.02612558687061657 -0.9308040489619157 0.02612558687061639 -0.031803019652289266 -0.01161754114351662
1.69 -0.03264817040018584 -0.02028944259880696 -0.9295081839994258 0.04567216628530466 -0.929508183999426 0.045672166285304405 -0.032648170400185555 -0.020289442598806905
1.7 -0.0338556958503952 -0.028907366735455783 -0.9277227809675157 0.06515898556869561 -0.9277227809675155 0.06515898556869516 -0.03385569585039559 -0.028907366735455235
1.71 -0.03542204912565949 -0.03745477759905447 -0.9254512965591541 0.08456920176877435 -0.9254512965591544 0.08456920176877365 -0.03542204912565943 -0.03745477759905357
1.72 -0.03734282091397522 -0.045915399870864564 -0.9226980120216045 0.1038862259614051 -0.9226980120216045 0.10388622596140518 -0.03734282091397535 -0.04591539987086467
1.73 -0.039612761633329295 -0.05427327195488206 -0.9194680110818299 0.12309377526462005 -0.9194680110818297 0.1230937752646195 -0.039612761633329316 -0.054273271954881436
1.74 -0.04222580744702208 -0.06251279689654685 -0.91576715401795 0.1421759226777007 -0.9157671540179501 0.1421759226777007 -0.04222580744702192 -0.06251279689654692
1.75 -0.04517510989081121 -0.07061879081362366 -0.9116020481158944 0.161117144424095 -0.9116020481158942 0.16111714442409492 -0.04517510989081137 -0.07061879081362368
1.76 -0.04845306884394438 -0.07857652854872467 -0.9069800147797031 0.17990236450621444 -0.906980014779703 0.1799023645062141 -0.048453068843944694 -0.07857652854872425
1.77 -0.05205136855073698 -0.0863717862848403 -0.9019090535893212 0.1985169962120316 -0.9019090535893214 0.19851699621203187 -0.0520513685507368 -0.08637178628484057
1.78 -0.05596101637813146 -0.09399088089934923 -0.896397803621068 0.21694698034749138 -0.8963978036210684 0.21694698034749135 -0.05596101637813098 -0.09399088089934962
1.79 -0.06017238397768204 -0.10142070586781263 -0.8904555023629462 0.23517882000461743 -0.890455502362946 0.23517882000461748 -0.06017238397768218 -0.10142070586781261
1.8 -0.0646752505079117 -0.10864876356586253 -0.884091942569568 0.2531996117121561 -0.884091942569568 0.253199611712156 -0.06467525050791183 -0.10864876356586227
1.81 -0.06945884756486195 -0.11566319385500856 -0.8773174274096046 0.2709970728531432 -0.8773174274096045 0.27099707285314323 -0.06945884756486188 -0.11566319385500859
1.82 -0.0745119054649995 -0.12245279887571209 -0.8701427242624246 0.28855956527128457 -0.8701427242624246 0.28855956527128457 -0.07451190546499963 -0.12245279887571209
1.83 -0.07982270052518031 -0.12900706400803463 -0.8625790175200937 0.3058761150249998 -0.8625790175200938 0.30587611502499956 -0.07982270052518026 -0.12900706400803424
1.84 -0.08537910298903147 -0.13531617499607834 -0.854637860746301 0.3229364282838898 -0.8546378607463009 0.32293642828388974 -0.08537910298903154 -0.13531617499607831
1.85 -0.09116862525756247 -0.141371031266813 -0.8463311285354262 0.33973090339675804 -0.846331128535426 0.339730903396758 -0.09116862525756286 -0.14137103126681305
1.86 -0.097178470093754 -0.1471632555063055 -0.8376709684030605 0.3562506391927257 -0.8376709684030605 0.356250639192726 -0.09717847009375369 -0.14716325550630596
1.87 -0.1033955784859937 -0.1526851995865506 -0.828669753024269 0.372487439607174 -0.8286697530242689 0.37248743960717395 -0.103395578485994 -0.15268519958655039
1.88 -0.10980667687308548 -0.15792994696363324 -0.8193400331181002 0.38843381475176547 -0.8193400331181001 0.3884338147517653 -0.1098066768730856 -0.15792994696363327
1.89 -0.11639832345376185 -0.16289131169271417 -0.8096944912567056 0.4040829785725573 -0.8096944912567055 0.4040829785725572 -0.11639832345376191 -0.16289131169271392
1.9 -0.1231569533258102 -0.16756383422708346 -0.7997458968553668 0.41942884326197066 -0.799745896855367 0.4194288432619705 -0.12315695332581025 -0.16756383422708357
1.91 -0.1300689222235525 -0.17194277418718726 -0.7895070625761601 0.43446601060902934 -0.7895070625761602 0.43446601060902934 -0.13006892222355254 -0.17194277418718726
1.92 -0.13712054864718295 -0.1760241003010382 -0.7789908023533301 0.4491897604878122 -0.77899080235333 0.44918976048781223 -0.1371205486471831 -0.17602410030103832
1.93 -0.1442981542028874 -0.17980447772981245 -0.768209891223114 0.4635960366964222 -0.7682098912231139 0.46359603669642213 -0.1442981542028875 -0.17980447772981242
1.94 -0.1515881019983867 -0.18328125300170625 -0.7571770271151538 0.47768143036807165 -0.7571770271151537 0.47768143036807154 -0.15158810199838674 -0.18328125300170622
1.95 -0.15897683296420717 -0.1864524367834553 -0.7459047947370553 0.4914431611822146 -0.7459047947370553 0.49144316118221454 -0.15897683296420717 -0.18645243678345505
1.96 -0.1664508999962347 -0.18931668472238392 -0.7344056316585426 0.5048790566071214 -0.7344056316585428 0.5048790566071213 -0.16645089999623433 -0.1893166847223842
1.97 -0.17399699983965497 -0.19187327659266123 -0.72269179667719 0.5179875294061063 -0.7226917966771899 0.517987529406106 -0.17399699983965525 -0.19187327659266126
1.98 -0.18160200265802473 -0.19412209397778962 -0.7107753405242387 0.5307675536380008 -0.710775340524239 0.530767553638001 -0.18160200265802454 -0.1941220939777901
1.99 -0.18925297925360257 -0.19606359671746848 -0.6986680789466966 0.5432186393785687 -0.6986680789466967 0.5432186393785691 -0.1892529792536026 -0.1960635967174686
2.0 -0.1969372259261865 -0.19769879834106263 -0.6863815681809874 0.5553408063836869 -0.6863815681809874 0.5553408063836869 -0.1969372259261865 -0.19769879834106255
