! Created with skrf 2.1.0 (http://scikit-rf.org).
# GHz S DB R 50.0 
!freq dBS11 angS11
!
1.0 -1.664861962090132 -30.938750518895674
1.01 -1.692460016678434 -31.169722007468472
1.02 -1.7201514647019138 -31.39898349686733
1.03 -1.74793329449478 -31.626540243815597
1.04 -1.7758025346153825 -31.85239772616802
1.05 -1.8037562539300998 -32.07656163521561
1.06 -1.8317915616695806 -32.29903786810391
1.07 -1.8599056074583176 -32.519832520367146
1.08 -1.8880955813185811 -32.738951878580764
1.09 -1.916358713649696 -32.95640241313452
1.1 -1.944692275183608 -33.17219077112795
1.11 -1.973093576917717 -33.38632376938988
1.12 -2.001559970025903 -33.5988083876235
1.13 -2.0300888457486943 -33.809651761678
1.14 -2.058677635263458 -34.01886117694803
1.15 -2.0873238095355253 -34.226444061901574
1.16 -2.1160248791511362 -34.43240798173696
1.17 -2.144778394133028 -34.63676063216923
1.18 -2.1735819437395474 -34.83950983334646
1.19 -2.2024331562480755 -35.04066352389577
1.2 -2.2313296987235955 -35.240229755099044
1.21 -2.260269276773146 -35.438216685198235
1.22 -2.289249634286977 -35.634632573829826
1.23 -2.318268553167102 -35.82948577658781
1.24 -2.3473238530439984 -36.022784739714794
1.25 -2.3764133909821465 -36.2145379949203
1.26 -2.4055350611751085 -36.404754154325424
1.27 -2.4346867946307853 -36.59344190553308
1.28 -2.463866558847526 -36.78061000682249
1.29 -2.4930723574816733 -36.96626728246693
1.3 -2.5223022300072095 -37.15042261817355
1.31 -2.551554251368013 -37.33308495664386
1.32 -2.5808265316233725 -37.514263293253514
1.33 -2.610117215587229 -37.693966671850035
1.34 -2.639424482461748 -37.87220418066685
1.35 -2.6687465454656585 -38.04898494835224
1.36 -2.6980816514579073 -38.2243181401114
1.37 -2.7274280805570723 -38.39821295396013
1.38 -2.7567841457570164 -38.57067861708846
1.39 -2.7861481925391605 -38.74172438233228
1.4 -2.815518598481897 -38.91135952475149
1.41 -2.844893772867434 -39.07959333831273
1.42 -2.87427215628655 -39.2464351326749
1.43 -2.90365222024159 -39.411894230075674
1.44 -2.9330324667480454 -39.5759799623172
1.45 -2.962411427935102 -39.738701667848936
1.46 -2.991787665645437 -39.90006868894615
1.47 -3.0211597710346094 -40.060090368981726
1.48 -3.0505263641703326 -40.21877604978985
1.49 -3.0798860936318784 -40.376135069119364
1.5 -3.109237636109956 -40.53217675817515
1.51 -3.1385796960072505 -40.68691043924545
1.52 -3.167911005039879 -40.84034542341356
1.53 -3.1972303218400637 -40.99249100835171
1.54 -3.2265364315601133 -41.14335647619554
1.55 -3.2558281454780653 -41.29295109149717
1.56 -3.2851043006050773 -41.44128409925517
1.57 -3.314363759294787 -41.5883647230195
1.58 -3.3436054088548532 -41.734202163069796
1.59 -3.372828161160772 -41.878805594664996
1.6 -3.4020309522722023 -42.02218416636281
1.61 -3.4312127420518737 -42.16434699840706
1.62 -3.4603725137872594 -42.30530318118139
1.63 -3.489509273815133 -42.445061773727474
1.64 -3.5186220511491166 -42.58363180232619
1.65 -3.5477098971103582 -42.72102225914
1.66 -3.5767718849613805 -42.857242100915094
1.67 -3.6058071095432935 -42.99230024774135
1.68 -3.634814686916373 -43.12620558186897
1.69 -3.6637937540041103 -43.25896694658004
1.7 -3.692743468240849 -43.39059314511325
1.71 -3.7216630072230164 -43.52109293964082
1.72 -3.7505515683640525 -43.65047505029571
1.73 -3.7794083685530646 -43.77874815424779
1.74 -3.808232643817306 -43.90592088482768
1.75 -3.837023648988448 -44.032001830696785
1.76 -3.8657806573727664 -44.15699953506203
1.77 -3.8945029604252053 -44.28092249493426
1.78 -3.923189867427408 -44.40377916042869
1.79 -3.9518407051697038 -44.525577934106394
1.8 -3.980454817637087 -44.646327170355285
1.81 -4.009031565699192 -44.766035174809666
1.82 -4.037570326804293 -44.884710203806975
1.83 -4.066070494677344 -45.00236046388047
1.84 -4.09453147902202 -45.11899411128706
1.85 -4.12295270522684 -45.23461925156865
1.86 -4.151333614075287 -45.349243939146376
1.87 -4.179673661459986 -45.46287617694635
1.88 -4.207972318100886 -45.575523916056056
1.89 -4.2362290692674955 -45.687195055410285
1.9 -4.264443414505093 -45.79789744150557
1.91 -4.292614867364929 -45.90763886814229
1.92 -4.3207429551384315 -46.016427076193445
1.93 -4.348827218595343 -46.12426975339904
1.94 -4.3768672117258065 -46.2311745341854
1.95 -4.404862501486372 -46.33714899950843
1.96 -4.432812667549872 -46.44220067671992
1.97 -4.460717302059189 -46.54633703945617
1.98 -4.4885760093848495 -46.64956550754802
1.99 -4.516388405886429 -46.751893446951655
2.0 -4.544154119677727 -46.85332816969916
2.01 -4.571872790395713 -46.953876933868436
2.02 -4.599544068973154 -47.05354694357134
2.03 -4.627167617414987 -47.15234534895974
2.04 -4.65474310857825 -47.250279246248574
2.05 -4.682270225955706 -47.34735567775511
2.06 -4.709748663463015 -47.443581631954245
2.07 -4.737178125229426 -47.53896404354874
2.08 -4.764558325392006 -47.63350979355387
2.09 -4.791888987893312 -47.72722570939623
2.1 -4.819169846282499 -47.8201185650256
2.11 -4.846400643519798 -47.91219508103974
2.12 -4.873581131784377 -48.00346192482142
2.13 -4.900711072285465 -48.09392571068704
2.14 -4.927790235076771 -48.183593000046564
2.15 -4.95481839887412 -48.272470301574074
2.16 -4.981795350876286 -48.360564071388595
2.17 -5.008720886588946 -48.44788071324462
2.18 -5.035594809651758 -48.53442657873199
2.19 -5.0624169316684995 -48.62020796748462
2.2 -5.089187072040213 -48.70523112739767
2.21 -5.115905057801346 -48.78950225485276
2.22 -5.142570723458819 -48.8730274949508
2.23 -5.169183910834002 -48.95581294175212
2.24 -5.195744468907541 -49.03786463852346
2.25 -5.222252253666987 -49.11918857799142
2.26 -5.248707127957221 -49.19979070260228
2.27 -5.275108961333608 -49.27967690478739
2.28 -5.301457629917819 -49.35885302723431
2.29 -5.327753016256349 -49.437324863163035
2.3 -5.353995009181601 -49.51509815660713
2.31 -5.380183503675577 -49.592178602699526
2.32 -5.406318400736084 -49.66857184796253
2.33 -5.432399607245435 -49.744283490601994
2.34 -5.458427035841624 -49.819319080805194
2.35 -5.484400604791868 -49.89368412104228
2.36 -5.510320237868589 -49.96738406637093
2.37 -5.536185864227688 -50.04042432474419
2.38 -5.561997418289131 -50.11281025732095
2.39 -5.587754839619818 -50.18454717877915
2.4 -5.613458072818641 -50.2556403576313
2.41 -5.639107067403783 -50.32609501654219
2.42 -5.664701777702116 -50.39591633264855
2.43 -5.690242162740754 -50.46510943788053
2.44 -5.7157281861406695 -50.533679419284766
2.45 -5.741159816012376 -50.60163131934888
2.46 -5.766537024853594 -50.66897013632716
2.47 -5.791859789448928 -50.73570082456744
2.48 -5.817128090771451 -50.80182829483882
2.49 -5.842341913886231 -50.867357414660226
2.5 -5.867501247855735 -50.932293008629586
2.51 -5.892606085647033 -50.996639858753426
2.52 -5.91765642404088 -51.06040270477695
2.53 -5.942652263542523 -51.12358624451423
2.54 -5.967593608294299 -51.186195134178654
2.55 -5.992480465989915 -51.248233988713146
2.56 -6.017312847790449 -51.30970738212042
2.57 -6.042090768241987 -51.37061984779296
2.58 -6.066814245194889 -51.43097587884263
2.59 -6.091483299724678 -51.49077992842989
2.6 -6.11609795605446 -51.55003641009236
2.61 -6.140658241478922 -51.60874969807292
2.62 -6.165164186289824 -51.66692412764695
2.63 -6.189615823702982 -51.72456399544881
2.64 -6.214013189786716 -51.7816735597975
2.65 -6.238356323391713 -51.83825704102121
2.66 -6.262645266082324 -51.89431862178101
2.67 -6.286880062069215 -51.94986244739332
2.68 -6.311060758143387 -52.004892626151246
2.69 -6.3351874036115285 -52.059413229644676
2.7 -6.359260050232647 -52.11342829307906
2.71 -6.383278752156034 -52.16694181559291
2.72 -6.407243565860422 -52.2199577605738
2.73 -6.431154550094433 -52.272480055973006
2.74 -6.455011765818192 -52.3245125946185
2.75 -6.478815276146166 -52.37605923452656
2.76 -6.502565146291132 -52.42712379921167
2.77 -6.526261443509328 -52.47771007799479
2.78 -6.549904237046685 -52.52782182631
2.79 -6.573493598086185 -52.57746276600935
2.8 -6.597029599696304 -52.626636585666056
2.81 -6.620512316780486 -52.67534694087583
2.82 -6.6439418260276835 -52.72359745455643
2.83 -6.667318205863899 -52.77139171724542
2.84 -6.690641536404739 -52.81873328739589
2.85 -6.713911899408944 -52.86562569167052
2.86 -6.7371293782328685 -52.91207242523354
2.87 -6.760294057785934 -52.95807695204083
2.88 -6.783406024486965 -53.00364270512805
2.89 -6.806465366221471 -53.04877308689677
2.9 -6.8294721722997975 -53.09347146939866
2.91 -6.852426533416155 -53.1377411946176
2.92 -6.8753285416085 -53.18158557474979
2.93 -6.898178290219258 -53.22500789248185
2.94 -6.9209758738568805 -53.268011401266875
2.95 -6.943721388358181 -53.31059932559833
2.96 -6.966414930751493 -53.352774861282064
2.97 -6.989056599220577 -53.39454117570601
2.98 -7.011646493069305 -53.43590140810802
2.99 -7.034184712687097 -53.4768586698415
3.0 -7.056671359515057 -53.5174160446389
