! Created with skrf 2.1.0 (http://scikit-rf.org).
# GHz S MA R 50.0 
!freq magS11 angS11 magS21 angS21 magS12 angS12 magS22 angS22
0.5 0.7300000000000001 -51.0 7.761140001162655 140.0 0.034 66.0 0.605 -32.5
0.55 0.728 -52.10000000000001 7.713643142430324 139.0 0.0344 65.6 0.6035 -33.25
0.6 0.7259999999999999 -53.2 7.66261028176921 138.0 0.0348 65.2 0.602 -34.00000000000001
0.65 0.7239999999999999 -54.3 7.608272549847584 137.0 0.0352 64.8 0.6005 -34.75
0.7 0.722 -55.4 7.550866850928139 136.0 0.0356 64.4 0.599 -35.5
0.75 0.72 -56.5 7.490633420552356 135.0 0.036 64.0 0.5974999999999999 -36.25
0.8 0.718 -57.6 7.4278135270820735 134.0 0.03640000000000001 63.6 0.596 -37.0
0.85 0.716 -58.7 7.362647347667796 133.0 0.0368 63.2 0.5945 -37.75000000000001
0.9 0.714 -59.8 7.295372041400851 132.0 0.0372 62.8 0.593 -38.5
0.95 0.7119999999999999 -60.900000000000006 7.226220034834319 131.0 0.0376 62.4 0.5914999999999999 -39.25
1.0 0.71 -62.0 7.155417527999326 130.0 0.038000000000000006 62.0 0.59 -40.0
1.05 0.708 -63.10000000000001 7.083183222703548 129.0 0.038400000000000004 61.599999999999994 0.5885 -40.75
1.1 0.7060000000000001 -64.2 7.009727269413176 128.0 0.0388 61.20000000000001 0.5870000000000001 -41.5
1.15 0.704 -65.3 6.935250424460282 127.00000000000001 0.0392 60.8 0.5855 -42.25
1.2 0.702 -66.4 6.8599434057003545 126.0 0.0396 60.4 0.584 -43.0
1.25 0.7 -67.5 6.783986432040704 125.00000000000001 0.04000000000000001 59.99999999999999 0.5825 -43.75
1.3 0.698 -68.6 6.707548930405096 124.0 0.0404 59.60000000000001 0.581 -44.50000000000001
1.35 0.6959999999999998 -69.7 6.630789392605186 123.00000000000001 0.0408 59.20000000000001 0.5795 -45.25
1.4 0.694 -70.8 6.553855364152323 122.0 0.0412 58.8 0.578 -45.99999999999999
1.45 0.692 -71.9 6.476883547155101 121.0 0.0416 58.400000000000006 0.5765 -46.75
1.5 0.69 -73.0 6.4 119.99999999999999 0.041999999999999996 58.00000000000001 0.575 -47.5
1.55 0.688 -74.1 6.32332041740195 119.0 0.04239999999999999 57.6 0.5735 -48.24999999999999
1.6 0.6859999999999999 -75.2 6.246950475544242 118.00000000000001 0.0428 57.2 0.572 -49.00000000000001
1.65 0.6839999999999999 -76.3 6.170986228320618 117.0 0.0432 56.800000000000004 0.5705 -49.75
1.7 0.6819999999999999 -77.4 6.095514542075676 116.00000000000001 0.04359999999999999 56.4 0.569 -50.5
1.75 0.6799999999999999 -78.5 6.020613557655023 115.0 0.044 56.0 0.5674999999999999 -51.25
1.8 0.678 -79.6 5.94635316997733 114.00000000000001 0.04440000000000001 55.6 0.566 -52.0
1.85 0.6759999999999999 -80.7 5.872795516691261 113.0 0.0448 55.2 0.5645 -52.75
1.9 0.674 -81.8 5.799995468755312 112.0 0.0452 54.800000000000004 0.5629999999999998 -53.5
1.95 0.672 -82.9 5.728001116960326 111.0 0.04560000000000001 54.4 0.5615 -54.25
2.0 0.67 -84.0 5.65685424949238 110.0 0.046 54.0 0.56 -55.0
2.05 0.668 -85.1 5.58659081660262 109.0 0.0464 53.6 0.5585 -55.75
2.1 0.6659999999999999 -86.2 5.517241379310345 108.0 0.0468 53.199999999999996 0.5569999999999999 -56.5
2.15 0.6640000000000001 -87.3 5.448831539818299 107.0 0.0472 52.8 0.5555 -57.25
2.2 0.6619999999999999 -88.4 5.381382351970499 106.0 0.04760000000000001 52.4 0.554 -58.00000000000001
2.25 0.66 -89.5 5.314910710639358 105.00000000000001 0.04800000000000001 52.0 0.5524999999999999 -58.75
2.3 0.6580000000000001 -90.6 5.249429719398292 104.0 0.0484 51.60000000000001 0.551 -59.5
2.35 0.656 -91.7 5.184949036226864 103.0 0.048799999999999996 51.2 0.5495 -60.25000000000001
2.4 0.6539999999999999 -92.8 5.1214751973158394 102.0 0.049199999999999994 50.800000000000004 0.548 -61.0
2.45 0.652 -93.9 5.059011919298086 101.0 0.049600000000000005 50.4 0.5465 -61.75
2.5 0.65 -95.0 4.997560380435394 100.0 0.05 50.0 0.545 -62.50000000000001
2.55 0.648 -96.10000000000001 4.937119481448814 99.0 0.0504 49.6 0.5435 -63.25
2.6 0.646 -97.2 4.877686086797539 98.0 0.0508 49.20000000000001 0.542 -64.0
2.65 0.6439999999999999 -98.30000000000001 4.8192552472949775 97.0 0.051199999999999996 48.8 0.5404999999999999 -64.75
2.7 0.642 -99.40000000000002 4.7618204050059 96.00000000000001 0.0516 48.4 0.539 -65.5
2.75 0.64 -100.50000000000001 4.7053735814003685 95.0 0.052 48.00000000000001 0.5375 -66.25
2.8 0.6379999999999999 -101.6 4.649905549752771 94.0 0.0524 47.6 0.536 -67.0
2.85 0.6360000000000001 -102.7 4.595405992771441 93.0 0.05280000000000001 47.20000000000001 0.5345000000000001 -67.75
2.9 0.634 -103.8 4.5418636464292765 92.0 0.05319999999999999 46.8 0.533 -68.5
2.95 0.632 -104.9 4.489266430941119 91.0 0.0536 46.4 0.5315 -69.25
3.0 0.6299999999999999 -106.0 4.437601569801833 90.0 0.05399999999999999 46.0 0.53 -70.0
3.05 0.6279999999999999 -107.1 4.386855697761928 89.0 0.05439999999999999 45.6 0.5285 -70.75
3.1 0.626 -108.2 4.337014958576745 88.0 0.0548 45.20000000000001 0.527 -71.5
3.15 0.624 -109.3 4.28806509332218 87.0 0.0552 44.79999999999999 0.5255 -72.25
3.2 0.622 -110.4 4.2399915200254386 86.0 0.0556 44.4 0.5239999999999999 -73.0
3.25 0.62 -111.5 4.192779405314678 85.0 0.056 44.0 0.5225 -73.75
3.3 0.618 -112.6 4.1464137287467535 84.0 0.0564 43.6 0.5210000000000001 -74.5
3.35 0.6159999999999999 -113.7 4.100879340428845 83.0 0.0568 43.199999999999996 0.5195 -75.25
3.4 0.6139999999999999 -114.80000000000001 4.05616101250715 82.0 0.05720000000000001 42.8 0.5179999999999999 -76.0
3.45 0.612 -115.90000000000002 4.012243485055137 81.0 0.0576 42.400000000000006 0.5165 -76.75
3.5 0.6100000000000001 -117.0 3.9691115068546705 80.0 0.058 42.0 0.5149999999999999 -77.5
3.55 0.608 -118.10000000000001 3.9267498715262086 79.0 0.0584 41.60000000000001 0.5135 -78.25
3.6 0.606 -119.20000000000002 3.885143449429057 78.0 0.058800000000000005 41.2 0.512 -79.0
3.65 0.604 -120.3 3.844277215719534 77.0 0.0592 40.8 0.5105 -79.75
3.7 0.602 -121.4 3.804136274923792 76.0 0.0596 40.4 0.509 -80.5
3.75 0.5999999999999999 -122.50000000000001 3.764705882352941 75.0 0.05999999999999999 40.0 0.5075000000000001 -81.25
3.8 0.598 -123.6 3.725971462660979 74.0 0.06039999999999999 39.6 0.506 -82.0
3.85 0.5959999999999999 -124.7 3.687918625820809 73.0 0.0608 39.2 0.5045 -82.75
3.9 0.594 -125.80000000000001 3.650533180770202 72.0 0.0612 38.79999999999999 0.503 -83.5
3.95 0.592 -126.90000000000002 3.6138011469578477 71.0 0.0616 38.4 0.5015000000000001 -84.25
4.0 0.59 -128.0 3.577708763999664 70.0 0.06199999999999999 38.0 0.5 -85.0
4.05 0.588 -129.1 3.542242499636993 69.0 0.06239999999999999 37.6 0.49850000000000005 -85.75
4.1 0.5860000000000001 -130.2 3.507389056171316 68.0 0.0628 37.2 0.497 -86.5
4.15 0.584 -131.30000000000004 3.4731353755344445 67.0 0.06319999999999999 36.800000000000004 0.4955000000000001 -87.25
4.2 0.582 -132.4 3.4394686431387815 66.0 0.06360000000000002 36.4 0.49400000000000005 -88.0
4.25 0.58 -133.5 3.4063762906390362 65.0 0.064 36.0 0.49250000000000005 -88.75
4.3 0.5780000000000001 -134.6 3.3738459977246777 64.0 0.0644 35.6 0.491 -89.5
4.35 0.5760000000000001 -135.7 3.341865693051371 63.0 0.0648 35.2 0.48950000000000005 -90.25
4.4 0.5739999999999998 -136.8 3.3104235544094722 62.0 0.06520000000000001 34.8 0.48800000000000004 -91.0
4.45 0.572 -137.9 3.279508008218445 61.0 0.06559999999999999 34.4 0.48649999999999993 -91.75
4.5 0.5700000000000001 -139.0 3.2491077284275813 59.99999999999999 0.066 34.00000000000001 0.485 -92.5
4.55 0.5680000000000002 -140.1 3.2192116348957165 59.00000000000001 0.0664 33.6 0.48350000000000004 -93.25
4.6 0.5660000000000001 -141.2 3.1898088913156 58.00000000000001 0.06679999999999998 33.2 0.48199999999999993 -94.0
4.65 0.5639999999999998 -142.3 3.160888902742167 57.00000000000001 0.06720000000000001 32.8 0.48050000000000004 -94.75
4.7 0.562 -143.4 3.1324413127781385 56.0 0.0676 32.4 0.479 -95.5
4.75 0.56 -144.5 3.104456000465062 55.0 0.068 32.0 0.47750000000000004 -96.25
4.8 0.558 -145.6 3.0769230769230766 54.00000000000001 0.0684 31.6 0.476 -97.0
4.85 0.556 -146.7 3.0498328817783236 52.99999999999999 0.0688 31.200000000000006 0.4745000000000001 -97.75
4.9 0.554 -147.8 3.023175979412893 52.0 0.06920000000000001 30.799999999999994 0.473 -98.5
4.95 0.552 -148.9 2.9969431550686347 51.0 0.0696 30.4 0.4715 -99.25
5.0 0.55 -150.0 2.9711254108328298 50.0 0.07 29.999999999999996 0.4699999999999999 -100.0
5.05 0.548 -151.1 2.9457139615307795 49.0 0.07039999999999999 29.600000000000005 0.46849999999999997 -100.75
5.1 0.546 -152.2 2.9207002305476495 48.0 0.0708 29.200000000000003 0.46699999999999997 -101.5
5.15 0.544 -153.3 2.8960758455994653 47.0 0.07119999999999999 28.799999999999997 0.4655 -102.25
5.2 0.5419999999999999 -154.4 2.8718326344709517 46.0 0.07160000000000001 28.400000000000002 0.46399999999999997 -103.0
5.25 0.5400000000000001 -155.5 2.8479626207359026 44.99999999999999 0.07200000000000002 28.0 0.4625 -103.75
5.3 0.538 -156.6 2.8244580194739384 44.0 0.07239999999999999 27.6 0.46099999999999997 -104.5
5.35 0.536 -157.7 2.801311232995921 43.0 0.07280000000000002 27.200000000000003 0.4595 -105.25
5.4 0.534 -158.8 2.778514846588752 42.0 0.0732 26.8 0.45799999999999996 -106.0
5.45 0.532 -159.9 2.756061624289009 41.0 0.0736 26.399999999999995 0.45649999999999996 -106.75
5.5 0.53 -161.0 2.733944504693635 40.0 0.07400000000000001 26.0 0.455 -107.5
5.55 0.528 -162.1 2.7121565968148205 38.99999999999999 0.0744 25.599999999999998 0.45349999999999996 -108.25
5.6 0.526 -163.2 2.690691175985249 38.0 0.0748 25.20000000000001 0.452 -109.0
5.65 0.524 -164.3 2.6695416798190106 37.0 0.0752 24.799999999999997 0.45050000000000007 -109.75
5.7 0.522 -165.4 2.648701704232648 36.0 0.0756 24.4 0.449 -110.5
5.75 0.52 -166.5 2.6281649995301817 35.0 0.07599999999999998 24.000000000000004 0.4475 -111.25
5.8 0.518 -167.6 2.607925466555234 34.0 0.0764 23.6 0.44600000000000006 -112.0
5.85 0.516 -168.7 2.58797715291286 33.0 0.0768 23.200000000000003 0.44450000000000006 -112.75
5.9 0.514 -169.8 2.568314249263183 32.0 0.07719999999999999 22.8 0.443 -113.5
5.95 0.5119999999999999 -170.9 2.5489310856884417 30.999999999999993 0.0776 22.4 0.44149999999999995 -114.25
6.0 0.51 -172.0 2.5298221281347035 29.999999999999993 0.078 22.0 0.44 -115.0
